
vertexct = 16 ;
orderct = 2 ;
order = [|5,16,5 | 2,15,3 |] ;

edgect = 24 ;
edet = array2d(Edge, Eindex,
[| %1,1,0,0|
   1,2,5,1
  | 2,3,5,1
  | 3,4,5,1
  
  | 5,6,5,1
  | 6,7,5,10
  | 7,8,5,1
 
  | 9,10,5,1
  | 10,11,5,10
  | 11,12,5,1
 
  | 13,14,5,1
  | 14,15,5,1
  | 15,16,5,1
  
  | 1,5,5,1
  | 5,9,5,1
  | 9,13,5,1
         
  | 2,6,5,1
 | 6,10,5,10 
  | 10,14,5,1
    
  | 3,7,5,1 
  | 7,11,5,10
  | 11,15,5,1
      
  | 4,8,5,1
  | 8,12,5,1
  | 12,16,5,1 
  |] ) ;
  
  pathct = 10 ;
  maxpath = 7 ;
    